Solver command line: ['C:\\Program Files\\IBM\\ILOG\\CPLEX_Studio2211\\cplex\\bin\\x64_win64\\cplex.exe']


Welcome to IBM(R) ILOG(R) CPLEX(R) Interactive Optimizer 22.1.1.0
  with Simplex, Mixed Integer & Barrier Optimizers
5725-A06 5725-A29 5724-Y48 5724-Y49 5724-Y54 5724-Y55 5655-Y21
Copyright IBM Corp. 1988, 2022.  All Rights Reserved.

Type 'help' for a list of available commands.
Type 'help' followed by a command name for more
information on commands.

CPLEX> Logfile 'cplex.log' closed.
Logfile 'C:\Users\wangy\Documents\GitHub\re_optimization\result_site_specific\tmp7rv2khqg.cplex.log' open.
CPLEX> Problem 'C:\Users\wangy\Documents\GitHub\re_optimization\result_site_specific\tmp5ba057jl.pyomo.lp' read.
Read time = 0.33 sec. (7.98 ticks)
CPLEX> Problem name         : C:\Users\wangy\Documents\GitHub\re_optimization\result_site_specific\tmp5ba057jl.pyomo.lp
Objective sense      : Minimize
Variables            :   56997  [Nneg: 30685,  Free: 4406,  Binary: 6,
                                 Other: 21900]
Objective nonzeros   :      14
Linear constraints   :   78893  [Less: 42355,  Greater: 5,  Equal: 36533]
  Nonzeros           :  198702
  RHS nonzeros       :    2911

Variables            : Min LB: 0.000000         Max UB: 1.000000       
Objective nonzeros   : Min   : 1.000000         Max   : 1.000000       
Linear constraints   :
  Nonzeros           : Min   : 0.003660293      Max   : 100000.0       
  RHS nonzeros       : Min   : 0.01500000       Max   : 100000.0       
CPLEX> Version identifier: 22.1.1.0 | 2022-11-27 | 9160aff4d
Tried aggregator 3 times.
MIP Presolve eliminated 47350 rows and 26908 columns.
Aggregator did 11092 substitutions.
Reduced MIP has 20451 rows, 18997 columns, and 61739 nonzeros.
Reduced MIP has 2 binaries, 0 generals, 0 SOSs, and 0 indicators.
Presolve time = 0.23 sec. (205.59 ticks)
Found incumbent of value 258642.255418 after 0.31 sec. (309.93 ticks)
Probing time = 0.00 sec. (1.00 ticks)
Tried aggregator 1 time.
Detecting symmetries...
Reduced MIP has 20451 rows, 18997 columns, and 61739 nonzeros.
Reduced MIP has 2 binaries, 0 generals, 0 SOSs, and 0 indicators.
Presolve time = 0.05 sec. (40.10 ticks)
Probing time = 0.00 sec. (0.96 ticks)
MIP emphasis: balance optimality and feasibility.
MIP search method: dynamic search.
Parallel mode: deterministic, using up to 16 threads.
Root relaxation solution time = 1.58 sec. (773.47 ticks)

        Nodes                                         Cuts/
   Node  Left     Objective  IInf  Best Integer    Best Bound    ItCnt     Gap

*     0+    0                       258642.2554    -3278.3502           101.27%
      0     0     3440.0780     1   258642.2554     3440.0780     6693   98.67%
*     0+    0                         5044.8328     3440.0780            31.81%
*     0+    0                         3803.9882     3440.0780             9.57%
      0     0        cutoff           3803.9882                   7137    0.00%
Elapsed time = 2.39 sec. (1934.16 ticks, tree = 0.01 MB, solutions = 3)

Root node processing (before b&c):
  Real time             =    2.39 sec. (1936.91 ticks)
Parallel b&c, 16 threads:
  Real time             =    0.00 sec. (0.00 ticks)
  Sync time (average)   =    0.00 sec.
  Wait time (average)   =    0.00 sec.
                          ------------
Total (root+branch&cut) =    2.39 sec. (1936.91 ticks)

Solution pool: 3 solutions saved.

MIP - Integer optimal solution:  Objective =  3.8039881966e+03
Solution time =    2.39 sec.  Iterations = 7137  Nodes = 0
Deterministic time = 1937.07 ticks  (810.15 ticks/sec)

CPLEX> Incumbent solution written to file 'C:\Users\wangy\Documents\GitHub\re_optimization\result_site_specific\tmpbsuoau2a.cplex.sol'.
CPLEX> 
